nNurses = 138;
nHours = 30;
minHours = 5;
maxHours = 11;
maxConsec = 7;
maxPresence = 25;
demand = [6, 8, 13, 14, 9, 8, 7, 8, 11, 12, 12, 9, 14, 11, 12, 16, 16, 11, 15, 19, 21, 25, 25, 29, 28, 25, 27, 23, 19, 23];
